qe/outputs/qe/cbrdelay_l0_discretize/T=5,eliminate=[I_0,I_1,I_2,I_3,I_4,L_0,L_1,L_2,L_3,L_4,B,lhs=C].smt2
; benchmark generated from python API
(set-info :status unknown)
(declare-fun S_3 () Real)
(declare-fun S_0 () Real)
(declare-fun C () Real)
(declare-fun S_2 () Real)
(declare-fun S_1 () Real)
(declare-fun S_4 () Real)
(declare-fun L0 () Real)
(declare-fun A_0 () Real)
(declare-fun A_4 () Real)
(declare-fun A_1 () Real)
(declare-fun A_3 () Real)
(declare-fun A_2 () Real)
(assert
 (let (($x37 (>= L0 0.0)))
 (let (($x776 (>= C 5.0)))
 (let ((?x291 (* (- 1.0) S_3)))
 (let ((?x5907 (* (/ 1.0 2.0) S_4)))
 (let ((?x5910 (* (- (/ 1.0 2.0)) A_4)))
 (let ((?x5894 (* (- (/ 1.0 2.0)) A_1)))
 (let ((?x5912 (* (/ 1.0 2.0) A_3)))
 (let ((?x5908 (* (/ 1.0 2.0) A_2)))
 (let (($x9323 (<= (+ (* 2.0 C) S_0 ?x291) 0.0)))
 (let (($x13822 (or $x9323 (<= (+ ?x5908 ?x5912 ?x5894 ?x5910 ?x5907 (* (/ 1.0 2.0) S_0) ?x291) 0.0))))
 (let (($x9322 (<= (+ C S_1 ?x291) 0.0)))
 (let (($x3597 (<= (+ A_2 (* (- 1.0) A_4) S_4 ?x291) 0.0)))
 (let (($x9855 (<= (+ (* (- (/ 1.0 2.0)) C) ?x5908 ?x5912 ?x5894 ?x5910 ?x5907 (* (/ 1.0 2.0) S_1) ?x291) 0.0)))
 (let (($x9789 (<= (+ A_3 (* (- 1.0) A_1) (* (- 1.0) S_4) S_1) (- 5.0))))
 (let (($x13837 (or (not (<= (+ (* (- 1.0) C) (* (- 1.0) A_2) A_3) (- 5.0))) (<= (+ C (* (- 1.0) A_2) (* (- 1.0) S_4) A_3 S_1) 0.0) $x9789)))
 (let (($x9655 (<= (+ (* (- 1.0) C) (* (- 1.0) A_2) A_3) (- 5.0))))
 (let (($x8723 (<= (+ (* 2.0 C) (* (- 1.0) S_4) S_1) 0.0)))
 (let (($x10239 (or (<= (+ C A_2 (* (- 1.0) A_1) (* (- 1.0) S_4) S_1) (- 5.0)) $x8723 $x9655 $x9789)))
 (let (($x10090 (<= (+ (* 2.0 C) A_2 (* (- 1.0) A_1) (* (- 1.0) S_4) S_0) (- 5.0))))
 (let ((?x500 (* (- 1.0) S_4)))
 (let ((?x520 (* (- 1.0) A_1)))
 (let ((?x9691 (+ C A_3 ?x520 ?x500 S_0)))
 (let (($x9862 (<= ?x9691 (- 5.0))))
 (let (($x9152 (<= (+ (* 3.0 C) ?x500 S_0) 0.0)))
 (let (($x9870 (<= (+ (* 2.0 C) (* (- 1.0) A_2) ?x500 S_0 A_3) (- 5.0))))
 (let (($x9772 (<= (+ (* (- 1.0) C) A_2 ?x520) (- 5.0))))
 (let (($x13729 (or (<= 0.0 (+ (* (- 1.0) C) A_3 (* (- 1.0) A_2))) $x9862 (not $x9772))))
 (let (($x9821 (or $x8723 (<= (+ C (* (- 1.0) A_2) ?x500 A_3 S_1) (- 5.0)) $x9772 $x9789)))
 (let (($x9221 (<= (+ C ?x500 S_2) 0.0)))
 (let (($x13958 (or $x9221 (<= (+ (* (- 1.0) A_2) ?x500 A_3 S_2) (- 5.0)) (<= (+ (* (- 1.0) C) A_3 ?x520 ?x500 S_2) (- 5.0)))))
 (let (($x382 (<= (+ (* (- 1.0) C) A_2 (* (- 1.0) A_3) S_4 ?x291) 0.0)))
 (let (($x122 (>= A_1 A_0)))
 (let (($x111 (>= S_1 S_0)))
 (let (($x114 (>= S_2 S_1)))
 (let (($x117 (>= S_3 S_2)))
 (let (($x120 (>= S_4 S_3)))
 (let (($x123 (>= A_2 A_1)))
 (let (($x124 (>= A_3 A_2)))
 (let (($x125 (>= A_4 A_3)))
 (and $x125 $x124 $x123 $x120 $x117 $x114 $x111 $x122 (or $x382 $x9322) (or $x9323 (<= (+ C A_2 ?x520 S_0 ?x291) (- 5.0))) (or $x382 $x9323) (or $x9221 (<= (+ (* (- 1.0) A_2) ?x500 A_3 S_2) 0.0)) $x13958 (or $x9322 (<= (+ A_2 ?x520 S_1 ?x291) (- 5.0))) $x9821 (or (<= 0.0 (+ C A_1 (* (- 1.0) A_2))) $x9152 $x9870) (<= (+ C S_0 (* (- 1.0) S_2)) 0.0) (or $x3597 $x9323) $x13729 (or $x9152 $x9772 $x9862 $x9870) (or $x9152 $x9655 $x10090 (not (<= 0.0 ?x9691))) (or $x9152 $x9655 $x9862 $x10090) $x10239 $x13837 (or $x9322 $x9855) (or $x3597 $x9322) $x13822 $x776 $x37 (not (>= (+ (* (- 1.0) A_0) S_4 L0) 0.0)) (<= (+ (* (- 2.0) C) S_4 ?x291) 0.0) (<= (+ (* (- 3.0) C) S_4 (* (- 1.0) S_2)) 0.0) (<= (+ (* (- 5.0) C) S_4 (* (- 1.0) S_0)) 0.0) (<= (+ (* (- 2.0) C) (* (- 1.0) S_0) S_1) 0.0) (<= (+ (* (- 3.0) C) (* (- 1.0) S_0) S_2) 0.0) (<= (+ (* (- 2.0) C) (* (- 1.0) S_1) S_2) 0.0) (<= (+ (* (- 3.0) C) (* (- 1.0) S_1) S_3) 0.0) (<= (+ (* (- 4.0) C) S_4 (* (- 1.0) S_1)) 0.0) (<= (+ (* (- 2.0) C) S_3 (* (- 1.0) S_2)) 0.0) (<= (+ (* (- 4.0) C) (* (- 1.0) S_0) S_3) 0.0))))))))))))))))))))))))))))))))))))))))))
(check-sat)
